language ESSENCE' 1.0

letting C_FunctionND be
        [[0, 0, 0, 0, 0, 0, 0, 0, 0, 0, 0, 0, 0, 0, 0, 0, 0, 0, 0, 0, 0, 0; int(0..21)],
         [1, 0, 0, 0, 0, 0, 0, 0, 0, 0, 0, 0, 0, 0, 0, 0, 0, 0, 0, 0, 0, 0; int(0..21)],
         [1, 0, 0, 0, 0, 0, 0, 0, 0, 0, 0, 0, 0, 0, 0, 0, 0, 0, 0, 0, 0, 0; int(0..21)],
         [1, 0, 0, 0, 0, 0, 0, 0, 0, 0, 0, 0, 0, 0, 0, 0, 0, 0, 0, 0, 0, 0; int(0..21)],
         [1, 0, 0, 0, 0, 0, 0, 0, 0, 0, 0, 0, 0, 0, 0, 0, 0, 0, 0, 0, 0, 0; int(0..21)],
         [1, 0, 0, 0, 0, 0, 0, 0, 0, 0, 0, 0, 0, 0, 0, 0, 0, 0, 0, 0, 0, 0; int(0..21)],
         [1, 0, 0, 0, 0, 0, 0, 0, 0, 0, 0, 0, 0, 0, 0, 0, 0, 0, 0, 0, 0, 0; int(0..21)],
         [1, 0, 0, 0, 0, 0, 0, 0, 0, 0, 0, 0, 0, 0, 0, 0, 0, 0, 0, 0, 0, 0; int(0..21)],
         [1, 0, 0, 0, 0, 0, 0, 0, 0, 0, 0, 0, 0, 0, 0, 0, 0, 0, 0, 0, 0, 0; int(0..21)],
         [1, 0, 0, 0, 0, 0, 0, 0, 0, 0, 0, 0, 0, 0, 0, 0, 0, 0, 0, 0, 0, 0; int(0..21)],
         [1, 0, 0, 0, 0, 0, 0, 0, 0, 0, 0, 0, 0, 0, 0, 0, 0, 0, 0, 0, 0, 0; int(0..21)],
         [0, 1, 1, 1, 1, 1, 1, 1, 1, 1, 0, 0, 0, 0, 0, 0, 0, 0, 0, 0, 0, 0; int(0..21)],
         [0, 1, 0, 0, 0, 0, 0, 0, 0, 0, 1, 0, 0, 0, 0, 0, 0, 0, 0, 0, 0, 0; int(0..21)],
         [0, 0, 1, 0, 0, 0, 0, 0, 0, 0, 1, 0, 0, 0, 0, 0, 0, 0, 0, 0, 0, 0; int(0..21)],
         [0, 0, 0, 1, 0, 0, 0, 0, 0, 0, 1, 0, 0, 0, 0, 0, 0, 0, 0, 0, 0, 0; int(0..21)],
         [0, 0, 0, 0, 1, 0, 0, 0, 0, 0, 1, 0, 0, 0, 0, 0, 0, 0, 0, 0, 0, 0; int(0..21)],
         [0, 0, 0, 0, 0, 1, 0, 0, 0, 0, 1, 0, 0, 0, 0, 0, 0, 0, 0, 0, 0, 0; int(0..21)],
         [0, 0, 0, 0, 0, 0, 1, 0, 0, 0, 1, 0, 0, 0, 0, 0, 0, 0, 0, 0, 0, 0; int(0..21)],
         [0, 0, 0, 0, 0, 0, 0, 1, 0, 0, 1, 0, 0, 0, 0, 0, 0, 0, 0, 0, 0, 0; int(0..21)],
         [0, 0, 0, 0, 0, 0, 0, 0, 1, 0, 1, 0, 0, 0, 0, 0, 0, 0, 0, 0, 0, 0; int(0..21)],
         [0, 0, 0, 0, 0, 0, 0, 0, 0, 1, 1, 0, 0, 0, 0, 0, 0, 0, 0, 0, 0, 0; int(0..21)],
         [0, 0, 0, 0, 0, 0, 0, 0, 0, 0, 0, 1, 1, 1, 1, 1, 1, 1, 1, 1, 1, 0; int(0..21)];
             int(0..21)]
$ Visualisation for C_FunctionND
$ 0 0 0 0 0 0 0 0 0 0 0 0 0 0 0 0 0 0 0 0 0 0
$ 1 0 0 0 0 0 0 0 0 0 0 0 0 0 0 0 0 0 0 0 0 0
$ 1 0 0 0 0 0 0 0 0 0 0 0 0 0 0 0 0 0 0 0 0 0
$ 1 0 0 0 0 0 0 0 0 0 0 0 0 0 0 0 0 0 0 0 0 0
$ 1 0 0 0 0 0 0 0 0 0 0 0 0 0 0 0 0 0 0 0 0 0
$ 1 0 0 0 0 0 0 0 0 0 0 0 0 0 0 0 0 0 0 0 0 0
$ 1 0 0 0 0 0 0 0 0 0 0 0 0 0 0 0 0 0 0 0 0 0
$ 1 0 0 0 0 0 0 0 0 0 0 0 0 0 0 0 0 0 0 0 0 0
$ 1 0 0 0 0 0 0 0 0 0 0 0 0 0 0 0 0 0 0 0 0 0
$ 1 0 0 0 0 0 0 0 0 0 0 0 0 0 0 0 0 0 0 0 0 0
$ 1 0 0 0 0 0 0 0 0 0 0 0 0 0 0 0 0 0 0 0 0 0
$ 0 1 1 1 1 1 1 1 1 1 0 0 0 0 0 0 0 0 0 0 0 0
$ 0 1 0 0 0 0 0 0 0 0 1 0 0 0 0 0 0 0 0 0 0 0
$ 0 0 1 0 0 0 0 0 0 0 1 0 0 0 0 0 0 0 0 0 0 0
$ 0 0 0 1 0 0 0 0 0 0 1 0 0 0 0 0 0 0 0 0 0 0
$ 0 0 0 0 1 0 0 0 0 0 1 0 0 0 0 0 0 0 0 0 0 0
$ 0 0 0 0 0 1 0 0 0 0 1 0 0 0 0 0 0 0 0 0 0 0
$ 0 0 0 0 0 0 1 0 0 0 1 0 0 0 0 0 0 0 0 0 0 0
$ 0 0 0 0 0 0 0 1 0 0 1 0 0 0 0 0 0 0 0 0 0 0
$ 0 0 0 0 0 0 0 0 1 0 1 0 0 0 0 0 0 0 0 0 0 0
$ 0 0 0 0 0 0 0 0 0 1 1 0 0 0 0 0 0 0 0 0 0 0
$ 0 0 0 0 0 0 0 0 0 0 0 1 1 1 1 1 1 1 1 1 1 0

letting J_FunctionND be
        [[0, 1, 2, 3, 4, 5, 6, 7, 8, 9, 10, 11, 12, 13, 14, 15, 16, 17, 18, 19, 20, 21; int(0..21)],
         [1, 1, 11, 11, 11, 11, 11, 11, 11, 11, 12, 11, 12, 21, 21, 21, 21, 21, 21, 21, 21, 21; int(0..21)],
         [2, 11, 2, 11, 11, 11, 11, 11, 11, 11, 13, 11, 21, 13, 21, 21, 21, 21, 21, 21, 21, 21; int(0..21)],
         [3, 11, 11, 3, 11, 11, 11, 11, 11, 11, 14, 11, 21, 21, 14, 21, 21, 21, 21, 21, 21, 21; int(0..21)],
         [4, 11, 11, 11, 4, 11, 11, 11, 11, 11, 15, 11, 21, 21, 21, 15, 21, 21, 21, 21, 21, 21; int(0..21)],
         [5, 11, 11, 11, 11, 5, 11, 11, 11, 11, 16, 11, 21, 21, 21, 21, 16, 21, 21, 21, 21, 21; int(0..21)],
         [6, 11, 11, 11, 11, 11, 6, 11, 11, 11, 17, 11, 21, 21, 21, 21, 21, 17, 21, 21, 21, 21; int(0..21)],
         [7, 11, 11, 11, 11, 11, 11, 7, 11, 11, 18, 11, 21, 21, 21, 21, 21, 21, 18, 21, 21, 21; int(0..21)],
         [8, 11, 11, 11, 11, 11, 11, 11, 8, 11, 19, 11, 21, 21, 21, 21, 21, 21, 21, 19, 21, 21; int(0..21)],
         [9, 11, 11, 11, 11, 11, 11, 11, 11, 9, 20, 11, 21, 21, 21, 21, 21, 21, 21, 21, 20, 21; int(0..21)],
         [10, 12, 13, 14, 15, 16, 17, 18, 19, 20, 10, 21, 12, 13, 14, 15, 16, 17, 18, 19, 20, 21; int(0..21)],
         [11, 11, 11, 11, 11, 11, 11, 11, 11, 11, 21, 11, 21, 21, 21, 21, 21, 21, 21, 21, 21, 21; int(0..21)],
         [12, 12, 21, 21, 21, 21, 21, 21, 21, 21, 12, 21, 12, 21, 21, 21, 21, 21, 21, 21, 21, 21; int(0..21)],
         [13, 21, 13, 21, 21, 21, 21, 21, 21, 21, 13, 21, 21, 13, 21, 21, 21, 21, 21, 21, 21, 21; int(0..21)],
         [14, 21, 21, 14, 21, 21, 21, 21, 21, 21, 14, 21, 21, 21, 14, 21, 21, 21, 21, 21, 21, 21; int(0..21)],
         [15, 21, 21, 21, 15, 21, 21, 21, 21, 21, 15, 21, 21, 21, 21, 15, 21, 21, 21, 21, 21, 21; int(0..21)],
         [16, 21, 21, 21, 21, 16, 21, 21, 21, 21, 16, 21, 21, 21, 21, 21, 16, 21, 21, 21, 21, 21; int(0..21)],
         [17, 21, 21, 21, 21, 21, 17, 21, 21, 21, 17, 21, 21, 21, 21, 21, 21, 17, 21, 21, 21, 21; int(0..21)],
         [18, 21, 21, 21, 21, 21, 21, 18, 21, 21, 18, 21, 21, 21, 21, 21, 21, 21, 18, 21, 21, 21; int(0..21)],
         [19, 21, 21, 21, 21, 21, 21, 21, 19, 21, 19, 21, 21, 21, 21, 21, 21, 21, 21, 19, 21, 21; int(0..21)],
         [20, 21, 21, 21, 21, 21, 21, 21, 21, 20, 20, 21, 21, 21, 21, 21, 21, 21, 21, 21, 20, 21; int(0..21)],
         [21, 21, 21, 21, 21, 21, 21, 21, 21, 21, 21, 21, 21, 21, 21, 21, 21, 21, 21, 21, 21, 21; int(0..21)];
             int(0..21)]
$ Visualisation for J_FunctionND
$  0  1  2  3  4  5  6  7  8  9 10 11 12 13 14 15 16 17 18 19 20 21
$  1  1 11 11 11 11 11 11 11 11 12 11 12 21 21 21 21 21 21 21 21 21
$  2 11  2 11 11 11 11 11 11 11 13 11 21 13 21 21 21 21 21 21 21 21
$  3 11 11  3 11 11 11 11 11 11 14 11 21 21 14 21 21 21 21 21 21 21
$  4 11 11 11  4 11 11 11 11 11 15 11 21 21 21 15 21 21 21 21 21 21
$  5 11 11 11 11  5 11 11 11 11 16 11 21 21 21 21 16 21 21 21 21 21
$  6 11 11 11 11 11  6 11 11 11 17 11 21 21 21 21 21 17 21 21 21 21
$  7 11 11 11 11 11 11  7 11 11 18 11 21 21 21 21 21 21 18 21 21 21
$  8 11 11 11 11 11 11 11  8 11 19 11 21 21 21 21 21 21 21 19 21 21
$  9 11 11 11 11 11 11 11 11  9 20 11 21 21 21 21 21 21 21 21 20 21
$ 10 12 13 14 15 16 17 18 19 20 10 21 12 13 14 15 16 17 18 19 20 21
$ 11 11 11 11 11 11 11 11 11 11 21 11 21 21 21 21 21 21 21 21 21 21
$ 12 12 21 21 21 21 21 21 21 21 12 21 12 21 21 21 21 21 21 21 21 21
$ 13 21 13 21 21 21 21 21 21 21 13 21 21 13 21 21 21 21 21 21 21 21
$ 14 21 21 14 21 21 21 21 21 21 14 21 21 21 14 21 21 21 21 21 21 21
$ 15 21 21 21 15 21 21 21 21 21 15 21 21 21 21 15 21 21 21 21 21 21
$ 16 21 21 21 21 16 21 21 21 21 16 21 21 21 21 21 16 21 21 21 21 21
$ 17 21 21 21 21 21 17 21 21 21 17 21 21 21 21 21 21 17 21 21 21 21
$ 18 21 21 21 21 21 21 18 21 21 18 21 21 21 21 21 21 21 18 21 21 21
$ 19 21 21 21 21 21 21 21 19 21 19 21 21 21 21 21 21 21 21 19 21 21
$ 20 21 21 21 21 21 21 21 21 20 20 21 21 21 21 21 21 21 21 21 20 21
$ 21 21 21 21 21 21 21 21 21 21 21 21 21 21 21 21 21 21 21 21 21 21

letting M_FunctionND be
        [[0, 0, 0, 0, 0, 0, 0, 0, 0, 0, 0, 0, 0, 0, 0, 0, 0, 0, 0, 0, 0, 0; int(0..21)],
         [0, 1, 0, 0, 0, 0, 0, 0, 0, 0, 0, 1, 1, 0, 0, 0, 0, 0, 0, 0, 0, 1; int(0..21)],
         [0, 0, 2, 0, 0, 0, 0, 0, 0, 0, 0, 2, 0, 2, 0, 0, 0, 0, 0, 0, 0, 2; int(0..21)],
         [0, 0, 0, 3, 0, 0, 0, 0, 0, 0, 0, 3, 0, 0, 3, 0, 0, 0, 0, 0, 0, 3; int(0..21)],
         [0, 0, 0, 0, 4, 0, 0, 0, 0, 0, 0, 4, 0, 0, 0, 4, 0, 0, 0, 0, 0, 4; int(0..21)],
         [0, 0, 0, 0, 0, 5, 0, 0, 0, 0, 0, 5, 0, 0, 0, 0, 5, 0, 0, 0, 0, 5; int(0..21)],
         [0, 0, 0, 0, 0, 0, 6, 0, 0, 0, 0, 6, 0, 0, 0, 0, 0, 6, 0, 0, 0, 6; int(0..21)],
         [0, 0, 0, 0, 0, 0, 0, 7, 0, 0, 0, 7, 0, 0, 0, 0, 0, 0, 7, 0, 0, 7; int(0..21)],
         [0, 0, 0, 0, 0, 0, 0, 0, 8, 0, 0, 8, 0, 0, 0, 0, 0, 0, 0, 8, 0, 8; int(0..21)],
         [0, 0, 0, 0, 0, 0, 0, 0, 0, 9, 0, 9, 0, 0, 0, 0, 0, 0, 0, 0, 9, 9; int(0..21)],
         [0, 0, 0, 0, 0, 0, 0, 0, 0, 0, 10, 0, 10, 10, 10, 10, 10, 10, 10, 10, 10, 10; int(0..21)],
         [0, 1, 2, 3, 4, 5, 6, 7, 8, 9, 0, 11, 1, 2, 3, 4, 5, 6, 7, 8, 9, 11; int(0..21)],
         [0, 1, 0, 0, 0, 0, 0, 0, 0, 0, 10, 1, 12, 10, 10, 10, 10, 10, 10, 10, 10, 12; int(0..21)],
         [0, 0, 2, 0, 0, 0, 0, 0, 0, 0, 10, 2, 10, 13, 10, 10, 10, 10, 10, 10, 10, 13; int(0..21)],
         [0, 0, 0, 3, 0, 0, 0, 0, 0, 0, 10, 3, 10, 10, 14, 10, 10, 10, 10, 10, 10, 14; int(0..21)],
         [0, 0, 0, 0, 4, 0, 0, 0, 0, 0, 10, 4, 10, 10, 10, 15, 10, 10, 10, 10, 10, 15; int(0..21)],
         [0, 0, 0, 0, 0, 5, 0, 0, 0, 0, 10, 5, 10, 10, 10, 10, 16, 10, 10, 10, 10, 16; int(0..21)],
         [0, 0, 0, 0, 0, 0, 6, 0, 0, 0, 10, 6, 10, 10, 10, 10, 10, 17, 10, 10, 10, 17; int(0..21)],
         [0, 0, 0, 0, 0, 0, 0, 7, 0, 0, 10, 7, 10, 10, 10, 10, 10, 10, 18, 10, 10, 18; int(0..21)],
         [0, 0, 0, 0, 0, 0, 0, 0, 8, 0, 10, 8, 10, 10, 10, 10, 10, 10, 10, 19, 10, 19; int(0..21)],
         [0, 0, 0, 0, 0, 0, 0, 0, 0, 9, 10, 9, 10, 10, 10, 10, 10, 10, 10, 10, 20, 20; int(0..21)],
         [0, 1, 2, 3, 4, 5, 6, 7, 8, 9, 10, 11, 12, 13, 14, 15, 16, 17, 18, 19, 20, 21; int(0..21)];
             int(0..21)]
$ Visualisation for M_FunctionND
$  0  0  0  0  0  0  0  0  0  0  0  0  0  0  0  0  0  0  0  0  0  0
$  0  1  0  0  0  0  0  0  0  0  0  1  1  0  0  0  0  0  0  0  0  1
$  0  0  2  0  0  0  0  0  0  0  0  2  0  2  0  0  0  0  0  0  0  2
$  0  0  0  3  0  0  0  0  0  0  0  3  0  0  3  0  0  0  0  0  0  3
$  0  0  0  0  4  0  0  0  0  0  0  4  0  0  0  4  0  0  0  0  0  4
$  0  0  0  0  0  5  0  0  0  0  0  5  0  0  0  0  5  0  0  0  0  5
$  0  0  0  0  0  0  6  0  0  0  0  6  0  0  0  0  0  6  0  0  0  6
$  0  0  0  0  0  0  0  7  0  0  0  7  0  0  0  0  0  0  7  0  0  7
$  0  0  0  0  0  0  0  0  8  0  0  8  0  0  0  0  0  0  0  8  0  8
$  0  0  0  0  0  0  0  0  0  9  0  9  0  0  0  0  0  0  0  0  9  9
$  0  0  0  0  0  0  0  0  0  0 10  0 10 10 10 10 10 10 10 10 10 10
$  0  1  2  3  4  5  6  7  8  9  0 11  1  2  3  4  5  6  7  8  9 11
$  0  1  0  0  0  0  0  0  0  0 10  1 12 10 10 10 10 10 10 10 10 12
$  0  0  2  0  0  0  0  0  0  0 10  2 10 13 10 10 10 10 10 10 10 13
$  0  0  0  3  0  0  0  0  0  0 10  3 10 10 14 10 10 10 10 10 10 14
$  0  0  0  0  4  0  0  0  0  0 10  4 10 10 10 15 10 10 10 10 10 15
$  0  0  0  0  0  5  0  0  0  0 10  5 10 10 10 10 16 10 10 10 10 16
$  0  0  0  0  0  0  6  0  0  0 10  6 10 10 10 10 10 17 10 10 10 17
$  0  0  0  0  0  0  0  7  0  0 10  7 10 10 10 10 10 10 18 10 10 18
$  0  0  0  0  0  0  0  0  8  0 10  8 10 10 10 10 10 10 10 19 10 19
$  0  0  0  0  0  0  0  0  0  9 10  9 10 10 10 10 10 10 10 10 20 20
$  0  1  2  3  4  5  6  7  8  9 10 11 12 13 14 15 16 17 18 19 20 21

letting R_Function1D be [0, 1, 1, 1, 1, 1, 1, 1, 1, 1, 1, 2, 2, 2, 2, 2, 2, 2, 2, 2, 2, 3; int(0..21)]
